T = 10;
E = 40;
G = 2;
easy = [5,10];
hard = [10,15];
tired = [3,4];
p = 1;
b = 2;


% an example solution is
act = array2d(GUARD,TIME,[
0,   0, 5, -1, 10,  0, 0,0,0,0,
15, -1, 0,  0,  0, 15, 0,0,0,0]);
end = 6;
